JulietBench/Juliet_Based_Patch_Bench/linux/CWE-189-Numeric-Errors/CVE_2010_2798_728a756b8fcd22d80e2dbba8117a8a3aafd3f203/Resultgfs2_dirent_find_space_Snippet_patch2EQ.smt2
; benchmark generated from python API
(set-info :status unknown)
(declare-fun R () (_ BitVec 32))
(declare-fun rdi () (_ BitVec 64))
(declare-fun rsi () (_ BitVec 64))
(assert
 (let (($x119 (= (_ bv1 32) R)))
 (let ((?x6 ((_ extract 31 0) rdi)))
 (let ((?x24 (bvsub ?x6 (_ bv40 32))))
 (let (($x19 (bvule (_ bv48 32) ?x24)))
 (let (($x117 (and $x19 $x119)))
 (let (($x183 (= (_ bv0 32) R)))
 (let (($x124 (bvugt (_ bv48 32) ?x24)))
 (let (($x180 (and $x124 $x183)))
 (let (($x101 (or $x180 $x117)))
 (let ((?x8 ((_ extract 31 0) rsi)))
 (let ((?x13 (bvadd (_ bv47 32) ?x8)))
 (let ((?x18 ((_ extract 31 3) ?x13)))
 (let ((?x28 (concat ?x18 (_ bv0 3))))
 (let (($x26 (bvule ?x28 ?x24)))
 (let (($x181 (and $x26 $x119)))
 (let (($x72 (bvugt ?x28 ?x24)))
 (let (($x120 (and $x72 $x183)))
 (let (($x118 (or $x120 $x181)))
 (and $x118 $x101))))))))))))))))))))
(check-sat)
